\ Model a
\ LP format - for model browsing. Use MPS format to capture full model detail.
Minimize
  - x[1] - x[2] + aux
Subject To
 R0: aux - aux_del - 0.1 x_hat[1,-1] - x_hat[1,0] - 0.2 x_hat[2,-1]
   - 2 x_hat[2,0] - 0.3 x_hat[3,-1] - 3 x_hat[3,0] - 0.4 x_hat[4,-1]
   - 4 x_hat[4,0] - 0.5 x_hat[5,-1] - 5 x_hat[5,0] - 0.6 x_hat[6,-1]
   - 6 x_hat[6,0] - 0.7 x_hat[7,-1] - 7 x_hat[7,0] - 0.8 x_hat[8,-1]
   - 8 x_hat[8,0] - 0.9 x_hat[9,-1] - 9 x_hat[9,0] = 0
 R1: x[1] - x_del - 0.1 z[1,-1] - z[1,0] - 0.2 z[2,-1] - 2 z[2,0]
   - 0.3 z[3,-1] - 3 z[3,0] - 0.4 z[4,-1] - 4 z[4,0] - 0.5 z[5,-1]
   - 5 z[5,0] - 0.6 z[6,-1] - 6 z[6,0] - 0.7 z[7,-1] - 7 z[7,0]
   - 0.8 z[8,-1] - 8 z[8,0] - 0.9 z[9,-1] - 9 z[9,0] = 0
 R2: x[2] - 0.1 x_hat[1,-1] - 0.2 x_hat[2,-1] - 0.3 x_hat[3,-1]
   - 0.4 x_hat[4,-1] - 0.5 x_hat[5,-1] - 0.6 x_hat[6,-1] - 0.7 x_hat[7,-1]
   - 0.8 x_hat[8,-1] - 0.9 x_hat[9,-1] = 0
 R3: x[2] - x_hat[1,0] - 2 x_hat[2,0] - 3 x_hat[3,0] - 4 x_hat[4,0]
   - 5 x_hat[5,0] - 6 x_hat[6,0] - 7 x_hat[7,0] - 8 x_hat[8,0]
   - 9 x_hat[9,0] = 0
 R4: x_hat[0,-1] - 1.5 z[0,-1] <= 0
 R5: x_hat[0,0] - 1.5 z[0,0] <= 0
 R6: x_hat[1,-1] - 1.5 z[1,-1] <= 0
 R7: x_hat[1,0] - 1.5 z[1,0] <= 0
 R8: x_hat[2,-1] - 1.5 z[2,-1] <= 0
 R9: x_hat[2,0] - 1.5 z[2,0] <= 0
 R10: x_hat[3,-1] - 1.5 z[3,-1] <= 0
 R11: x_hat[3,0] - 1.5 z[3,0] <= 0
 R12: x_hat[4,-1] - 1.5 z[4,-1] <= 0
 R13: x_hat[4,0] - 1.5 z[4,0] <= 0
 R14: x_hat[5,-1] - 1.5 z[5,-1] <= 0
 R15: x_hat[5,0] - 1.5 z[5,0] <= 0
 R16: x_hat[6,-1] - 1.5 z[6,-1] <= 0
 R17: x_hat[6,0] - 1.5 z[6,0] <= 0
 R18: x_hat[7,-1] - 1.5 z[7,-1] <= 0
 R19: x_hat[7,0] - 1.5 z[7,0] <= 0
 R20: x_hat[8,-1] - 1.5 z[8,-1] <= 0
 R21: x_hat[8,0] - 1.5 z[8,0] <= 0
 R22: x_hat[9,-1] - 1.5 z[9,-1] <= 0
 R23: x_hat[9,0] - 1.5 z[9,0] <= 0
 R24: z[0,-1] + z[1,-1] + z[2,-1] + z[3,-1] + z[4,-1] + z[5,-1] + z[6,-1]
   + z[7,-1] + z[8,-1] + z[9,-1] = 1
 R25: z[0,0] + z[1,0] + z[2,0] + z[3,0] + z[4,0] + z[5,0] + z[6,0] + z[7,0]
   + z[8,0] + z[9,0] = 1
 R26: aux_del - 1.5 x_del <= 0
 R27: - 0.1 x[2] + aux_del - 1.5 x_del >= -0.15
 R28: - 0.1 x[2] + aux_del <= 0
 R29: x_del <= 0.15
 R30: - 6 x[1] + 8 x[2] <= 3
 R31: 3 x[1] - x[2] <= 3
Bounds
 x[1] <= 1.5
 x[2] <= 1.5
 aux free
 x_hat[0,-1] <= 1.5
 x_hat[0,0] <= 1.5
 x_hat[1,-1] <= 1.5
 x_hat[1,0] <= 1.5
 x_hat[2,-1] <= 1.5
 x_hat[2,0] <= 1.5
 x_hat[3,-1] <= 1.5
 x_hat[3,0] <= 1.5
 x_hat[4,-1] <= 1.5
 x_hat[4,0] <= 1.5
 x_hat[5,-1] <= 1.5
 x_hat[5,0] <= 1.5
 x_hat[6,-1] <= 1.5
 x_hat[6,0] <= 1.5
 x_hat[7,-1] <= 1.5
 x_hat[7,0] <= 1.5
 x_hat[8,-1] <= 1.5
 x_hat[8,0] <= 1.5
 x_hat[9,-1] <= 1.5
 x_hat[9,0] <= 1.5
Binaries
 z[0,-1] z[0,0] z[1,-1] z[1,0] z[2,-1] z[2,0] z[3,-1] z[3,0] z[4,-1] z[4,0]
 z[5,-1] z[5,0] z[6,-1] z[6,0] z[7,-1] z[7,0] z[8,-1] z[8,0] z[9,-1] z[9,0]
End
